
Gurobi 12.0.2 (win64) logging started Fri Jun  6 10:10:09 2025

Set parameter LogFile to value "C:\Ioana\_uni\honours\slp\algorithm\Main_files\results\others\prox_tubules_new\Task_010_Sample003_irr_gurobi.log"
Gurobi Optimizer version 12.0.2 build v12.0.2rc0 (win64 - Windows 11.0 (26100.2))

CPU model: Intel(R) Core(TM) Ultra 5 125H, instruction set [SSE2|AVX|AVX2]
Thread count: 14 physical cores, 18 logical processors, using up to 18 threads

Non-default parameters:
TimeLimit  2200

Optimize a model with 47658 rows, 34794 columns and 147841 nonzeros
Model fingerprint: 0x6857e6a8
Variable types: 17400 continuous, 17394 integer (17394 binary)
Coefficient statistics:
  Matrix range     [1e-04, 8e+04]
  Objective range  [2e-04, 9e-01]
  Bounds range     [1e+00, 1e+03]
  RHS range        [1e+00, 1e+00]
Presolve removed 31246 rows and 21835 columns
Presolve time: 0.32s
Presolved: 16412 rows, 12959 columns, 54598 nonzeros
Variable types: 6413 continuous, 6546 integer (6546 binary)

Root relaxation: objective 1.960681e-03, 1876 iterations, 0.10 seconds (0.19 work units)

    Nodes    |    Current Node    |     Objective Bounds      |     Work
 Expl Unexpl |  Obj  Depth IntInf | Incumbent    BestBd   Gap | It/Node Time

     0     0    0.00196    0    4          -    0.00196      -     -    0s
H    0     0                       1.9606814    0.00196   100%     -    0s
     0     0    1.04738    0    4    1.96068    1.04738  46.6%     -    0s
     0     0    1.04746    0    4    1.96068    1.04746  46.6%     -    0s
     0     0    1.08437    0    1    1.96068    1.08437  44.7%     -    0s
     0     0    1.11617    0    5    1.96068    1.11617  43.1%     -    0s
     0     0     cutoff    0         1.96068    1.96068  0.00%     -    1s

Explored 1 nodes (3878 simplex iterations) in 1.01 seconds (1.18 work units)
Thread count was 18 (of 18 available processors)

Solution count 1: 1.96068 

Optimal solution found (tolerance 1.00e-04)
Best objective 1.960681375155e+00, best bound 1.960681375155e+00, gap 0.0000%
